NAME          ClpDefau
ROWS
 N  OBJROW
 L  R_184_0
 L  R_184_1
 L  R_184_2
 L  R_184_3
 L  R_184_4
 L  R_184_5
 L  R_184_6
 L  R_184_7
 L  R_184_8
 L  R_184_9
 L  R_184_10
 L  R_184_11
 L  R_184_12
 L  R_184_13
 L  R_184_14
 L  R_184_15
COLUMNS
    x_0       OBJROW     -8.           R_184_0   28.         
    x_0       R_184_1   75.            R_184_2   56.         
    x_0       R_184_3   93.            R_184_5   48.         
    x_0       R_184_6   57.            R_184_7   5.          
    x_0       R_184_9   41.            R_184_11  68.         
    x_0       R_184_12  23.            R_184_13  4.          
    x_0       R_184_14  23.            R_184_15  66.         
    x_1       OBJROW     -12.          R_184_0   66.         
    x_1       R_184_1   24.            R_184_3   54.         
    x_1       R_184_4   98.            R_184_5   76.         
    x_1       R_184_6   58.            R_184_7   97.         
    x_1       R_184_8   95.            R_184_9   68.         
    x_1       R_184_10  36.            R_184_12  46.         
    x_1       R_184_13  59.            R_184_15  73.         
    x_2       OBJROW     -11.          R_184_0   72.         
    x_2       R_184_1   63.            R_184_2   42.         
    x_2       R_184_6   99.            R_184_8   91.         
    x_2       R_184_10  65.            R_184_11  76.         
    x_2       R_184_12  94.            R_184_13  66.         
    x_2       R_184_14  88.            R_184_15  10.         
    x_3       OBJROW     -47.          R_184_0   44.         
    x_3       R_184_1   25.            R_184_3   74.         
    x_3       R_184_4   35.            R_184_5   88.         
    x_3       R_184_7   67.            R_184_8   35.         
    x_3       R_184_9   27.            R_184_11  92.         
    x_3       R_184_12  8.             R_184_13  23.         
    x_3       R_184_14  4.             R_184_15  9.          
    x_4       OBJROW     -22.          R_184_0   94.         
    x_4       R_184_2   17.            R_184_4   24.         
    x_4       R_184_5   1.             R_184_6   6.          
    x_4       R_184_7   32.            R_184_8   5.          
    x_4       R_184_9   79.            R_184_10  96.         
    x_4       R_184_11  44.            R_184_12  40.         
    x_4       R_184_13  99.            R_184_14  6.          
    x_5       OBJROW     -95.          R_184_0   80.         
    x_5       R_184_1   61.            R_184_3   88.         
    x_5       R_184_4   14.            R_184_5   17.         
    x_5       R_184_6   100.           R_184_7   66.         
    x_5       R_184_8   44.            R_184_9   78.         
    x_5       R_184_11  90.            R_184_12  18.         
    x_5       R_184_13  33.            R_184_14  21.         
    x_5       R_184_15  59.         
    x_6       OBJROW     -86.          R_184_0   66.         
    x_6       R_184_2   5.             R_184_4   57.         
    x_6       R_184_5   11.            R_184_6   80.         
    x_6       R_184_7   80.            R_184_8   33.         
    x_6       R_184_9   36.            R_184_10  1.          
    x_6       R_184_11  50.            R_184_12  15.         
    x_6       R_184_13  12.            R_184_14  13.         
    x_6       R_184_15  97.         
    x_7       OBJROW     -40.          R_184_0   28.         
    x_7       R_184_1   86.            R_184_2   40.         
    x_7       R_184_3   49.            R_184_4   98.         
    x_7       R_184_6   56.            R_184_7   3.          
    x_7       R_184_8   7.             R_184_11  13.         
    x_7       R_184_12  62.            R_184_13  67.         
    x_7       R_184_15  47.         
RHS
    RHS       R_184_0   228.           R_184_1   270.        
    RHS       R_184_2   237.           R_184_3   89.         
    RHS       R_184_4   291.           R_184_5   131.        
    RHS       R_184_6   133.           R_184_7   236.        
    RHS       R_184_8   181.           R_184_9   424.        
    RHS       R_184_10  88.            R_184_11  311.        
    RHS       R_184_12  110.           R_184_13  290.        
    RHS       R_184_14  406.           R_184_15  328.        
BOUNDS
 UI BOUND     x_0       100.        
 UI BOUND     x_1       100.        
 UI BOUND     x_2       100.        
 UI BOUND     x_3       100.        
 UI BOUND     x_4       100.        
 UI BOUND     x_5       100.        
 UI BOUND     x_6       100.        
 UI BOUND     x_7       100.        
ENDATA
